logs/miss/feas/miss-05-15-2.lp
\ LP format - for model browsing. Use MPS format to capture full model detail.
Minimize
  p0 + p1 + p2 + p3 + p4
Subject To
 R0: x0,1_2 + x0,2_2 + x0,3_2 + x0,4_2 + x1,2_2 + x1,3_2 + x1,4_2 + x2,3_2
   + x2,4_2 + x3,4_2 = 1
 R1: x0,1_12 + x0,2_12 + x0,3_12 + x0,4_12 + x1,2_12 + x1,3_12 + x1,4_12
   + x2,3_12 + x2,4_12 + x3,4_12 = 1
 R2: x0,1_14 + x0,2_14 + x0,3_14 + x0,4_14 + x1,2_14 + x1,3_14 + x1,4_14
   + x2,3_14 + x2,4_14 + x3,4_14 = 1
 R3: x0,1_19 + x0,2_19 + x0,3_19 + x0,4_19 + x1,2_19 + x1,3_19 + x1,4_19
   + x2,3_19 + x2,4_19 + x3,4_19 = 2
 R4: x0,1_2 + x0,1_12 + x0,1_14 + x0,1_19 <= 1
 R5: x0,2_2 + x0,2_12 + x0,2_14 + x0,2_19 <= 1
 R6: x0,3_2 + x0,3_12 + x0,3_14 + x0,3_19 <= 1
 R7: x0,4_2 + x0,4_12 + x0,4_14 + x0,4_19 <= 1
 R8: x1,2_2 + x1,2_12 + x1,2_14 + x1,2_19 <= 1
 R9: x1,3_2 + x1,3_12 + x1,3_14 + x1,3_19 <= 1
 R10: x1,4_2 + x1,4_12 + x1,4_14 + x1,4_19 <= 1
 R11: x2,3_2 + x2,3_12 + x2,3_14 + x2,3_19 <= 1
 R12: x2,4_2 + x2,4_12 + x2,4_14 + x2,4_19 <= 1
 R13: x3,4_2 + x3,4_12 + x3,4_14 + x3,4_19 <= 1
 R14: p0 - p1 <= -1
 R15: - 2 x0,1_2 - p0 + p1 >= 0
 R16: 66 x0,1_2 - p0 + p1 <= 68
 R17: - 12 x0,1_12 - p0 + p1 >= 0
 R18: 66 x0,1_12 - p0 + p1 <= 78
 R19: - 14 x0,1_14 - p0 + p1 >= 0
 R20: 66 x0,1_14 - p0 + p1 <= 80
 R21: - 19 x0,1_19 - p0 + p1 >= 0
 R22: 66 x0,1_19 - p0 + p1 <= 85
 R23: p0 - p2 <= -1
 R24: - 2 x0,2_2 - p0 + p2 >= 0
 R25: 66 x0,2_2 - p0 + p2 <= 68
 R26: - 12 x0,2_12 - p0 + p2 >= 0
 R27: 66 x0,2_12 - p0 + p2 <= 78
 R28: - 14 x0,2_14 - p0 + p2 >= 0
 R29: 66 x0,2_14 - p0 + p2 <= 80
 R30: - 19 x0,2_19 - p0 + p2 >= 0
 R31: 66 x0,2_19 - p0 + p2 <= 85
 R32: p0 - p3 <= -1
 R33: - 2 x0,3_2 - p0 + p3 >= 0
 R34: 66 x0,3_2 - p0 + p3 <= 68
 R35: - 12 x0,3_12 - p0 + p3 >= 0
 R36: 66 x0,3_12 - p0 + p3 <= 78
 R37: - 14 x0,3_14 - p0 + p3 >= 0
 R38: 66 x0,3_14 - p0 + p3 <= 80
 R39: - 19 x0,3_19 - p0 + p3 >= 0
 R40: 66 x0,3_19 - p0 + p3 <= 85
 R41: p0 - p4 <= -1
 R42: - 2 x0,4_2 - p0 + p4 >= 0
 R43: 66 x0,4_2 - p0 + p4 <= 68
 R44: - 12 x0,4_12 - p0 + p4 >= 0
 R45: 66 x0,4_12 - p0 + p4 <= 78
 R46: - 14 x0,4_14 - p0 + p4 >= 0
 R47: 66 x0,4_14 - p0 + p4 <= 80
 R48: - 19 x0,4_19 - p0 + p4 >= 0
 R49: 66 x0,4_19 - p0 + p4 <= 85
 R50: p1 - p2 <= -1
 R51: - 2 x1,2_2 - p1 + p2 >= 0
 R52: 66 x1,2_2 - p1 + p2 <= 68
 R53: - 12 x1,2_12 - p1 + p2 >= 0
 R54: 66 x1,2_12 - p1 + p2 <= 78
 R55: - 14 x1,2_14 - p1 + p2 >= 0
 R56: 66 x1,2_14 - p1 + p2 <= 80
 R57: - 19 x1,2_19 - p1 + p2 >= 0
 R58: 66 x1,2_19 - p1 + p2 <= 85
 R59: p1 - p3 <= -1
 R60: - 2 x1,3_2 - p1 + p3 >= 0
 R61: 66 x1,3_2 - p1 + p3 <= 68
 R62: - 12 x1,3_12 - p1 + p3 >= 0
 R63: 66 x1,3_12 - p1 + p3 <= 78
 R64: - 14 x1,3_14 - p1 + p3 >= 0
 R65: 66 x1,3_14 - p1 + p3 <= 80
 R66: - 19 x1,3_19 - p1 + p3 >= 0
 R67: 66 x1,3_19 - p1 + p3 <= 85
 R68: p1 - p4 <= -1
 R69: - 2 x1,4_2 - p1 + p4 >= 0
 R70: 66 x1,4_2 - p1 + p4 <= 68
 R71: - 12 x1,4_12 - p1 + p4 >= 0
 R72: 66 x1,4_12 - p1 + p4 <= 78
 R73: - 14 x1,4_14 - p1 + p4 >= 0
 R74: 66 x1,4_14 - p1 + p4 <= 80
 R75: - 19 x1,4_19 - p1 + p4 >= 0
 R76: 66 x1,4_19 - p1 + p4 <= 85
 R77: p2 - p3 <= -1
 R78: - 2 x2,3_2 - p2 + p3 >= 0
 R79: 66 x2,3_2 - p2 + p3 <= 68
 R80: - 12 x2,3_12 - p2 + p3 >= 0
 R81: 66 x2,3_12 - p2 + p3 <= 78
 R82: - 14 x2,3_14 - p2 + p3 >= 0
 R83: 66 x2,3_14 - p2 + p3 <= 80
 R84: - 19 x2,3_19 - p2 + p3 >= 0
 R85: 66 x2,3_19 - p2 + p3 <= 85
 R86: p2 - p4 <= -1
 R87: - 2 x2,4_2 - p2 + p4 >= 0
 R88: 66 x2,4_2 - p2 + p4 <= 68
 R89: - 12 x2,4_12 - p2 + p4 >= 0
 R90: 66 x2,4_12 - p2 + p4 <= 78
 R91: - 14 x2,4_14 - p2 + p4 >= 0
 R92: 66 x2,4_14 - p2 + p4 <= 80
 R93: - 19 x2,4_19 - p2 + p4 >= 0
 R94: 66 x2,4_19 - p2 + p4 <= 85
 R95: p3 - p4 <= -1
 R96: - 2 x3,4_2 - p3 + p4 >= 0
 R97: 66 x3,4_2 - p3 + p4 <= 68
 R98: - 12 x3,4_12 - p3 + p4 >= 0
 R99: 66 x3,4_12 - p3 + p4 <= 78
 R100: - 14 x3,4_14 - p3 + p4 >= 0
 R101: 66 x3,4_14 - p3 + p4 <= 80
 R102: - 19 x3,4_19 - p3 + p4 >= 0
 R103: 66 x3,4_19 - p3 + p4 <= 85
Bounds
Binaries
 x0,1_2 x0,1_12 x0,1_14 x0,1_19 x0,2_2 x0,2_12 x0,2_14 x0,2_19 x0,3_2
 x0,3_12 x0,3_14 x0,3_19 x0,4_2 x0,4_12 x0,4_14 x0,4_19 x1,2_2 x1,2_12
 x1,2_14 x1,2_19 x1,3_2 x1,3_12 x1,3_14 x1,3_19 x1,4_2 x1,4_12 x1,4_14
 x1,4_19 x2,3_2 x2,3_12 x2,3_14 x2,3_19 x2,4_2 x2,4_12 x2,4_14 x2,4_19
 x3,4_2 x3,4_12 x3,4_14 x3,4_19
Generals
 p0 p1 p2 p3 p4
End
